
--- Job Z_FlatN2_MH168_RF1_OPT1_DF3_DV1_DL3_DU1_S1_MC1_Profit.gms Start 03/08/16 18:21:53 24.5.6 r55090 WEX-WEI x86 64bit/MS Windows
GAMS 24.5.6   Copyright (C) 1987-2015 GAMS Development. All rights reserved
Licensee: Department of Chemical & Biological EngineeringG151026:1254AO-GEN
          University of Wisconsin - Madison                          DC4923
          License for teaching and research at degree granting institutions
--- Starting compilation
--- Z_FlatN2_MH168_RF1_OPT1_DF3_DV1_DL3_DU1_S1_MC1_Profit.gms(20) 2 Mb
--- .ConfigurationFile.gms(69) 2 Mb
--- ..MasterFile.gms(17) 3 Mb
--- ...NetworkN2.gms(107) 3 Mb
--- ..MasterFile.gms(18) 3 Mb
--- ...Model9.gms(522) 3 Mb
--- ..MasterFile.gms(146) 3 Mb
--- ...ModelSolution9.gms(288) 3 Mb
--- ..MasterFile.gms(288) 3 Mb
--- .ConfigurationFile.gms(76) 3 Mb
--- Z_FlatN2_MH168_RF1_OPT1_DF3_DV1_DL3_DU1_S1_MC1_Profit.gms(20) 3 Mb
--- Starting execution: elapsed 0:00:00.008
--- Z_FlatN2_MH168_RF1_OPT1_DF3_DV1_DL3_DU1_S1_MC1_Profit.gms(844) 4 Mb
--- Generating MIP model MAX_PROFIT_1
--- Z_FlatN2_MH168_RF1_OPT1_DF3_DV1_DL3_DU1_S1_MC1_Profit.gms(1062) 6 Mb
--- LOOPS run = run1
---       calc = calc0
---   5,678 rows  5,615 columns  14,710 non-zeroes
---   1,813 discrete-columns
--- Executing CPLEX: elapsed 0:00:00.291

IBM ILOG CPLEX   24.5.6 r55090 Released Nov 27, 2015 WEI x86 64bit/MS Windows 
--- GAMS/Cplex licensed for continuous and discrete problems.
Cplex 12.6.2.0

Reading data...
Starting Cplex...
Space for names approximately 0.32 Mb
Use option 'names no' to turn use of names off
Tried aggregator 7 times.
MIP Presolve eliminated 1293 rows and 1458 columns.
MIP Presolve modified 74 coefficients.
Aggregator did 2890 substitutions.
Reduced MIP has 1495 rows, 1267 columns, and 4990 nonzeros.
Reduced MIP has 518 binaries, 0 generals, 0 SOSs, and 0 indicators.
Presolve time = 0.02 sec. (16.17 ticks)
Found incumbent of value 4727.000000 after 0.03 sec. (30.30 ticks)
Probing fixed 0 vars, tightened 5188 bounds.
Probing time = 0.02 sec. (9.22 ticks)
Tried aggregator 1 time.
Reduced MIP has 1495 rows, 1267 columns, and 4990 nonzeros.
Reduced MIP has 518 binaries, 0 generals, 0 SOSs, and 0 indicators.
Presolve time = 0.00 sec. (2.80 ticks)
Probing fixed 0 vars, tightened 2172 bounds.
Probing time = 0.00 sec. (4.11 ticks)
Clique table members: 348.
MIP emphasis: balance optimality and feasibility.
MIP search method: dynamic search.
Parallel mode: none, using 1 thread.
Tried aggregator 1 time.
LP Presolve eliminated 346 rows and 0 columns.
Aggregator did 346 substitutions.
Reduced LP has 803 rows, 921 columns, and 3604 nonzeros.
Presolve time = 0.00 sec. (1.11 ticks)
Initializing dual steep norms . . .

Iteration log . . .
Iteration:     1   Dual objective     =        402991.000000
Iteration:    98   Dual objective     =         11723.500000
Iteration:   189   Dual objective     =         10708.250000
Iteration:   295   Dual objective     =          8050.600000
Perturbation started.
Iteration:   357   Dual objective     =          8035.750000
Iteration:   449   Dual objective     =          8035.749616
Iteration:   533   Dual objective     =          8016.025328
Iteration:   595   Dual objective     =          7997.875232
Iteration:   692   Dual objective     =          7996.874926
Removing perturbation.
Initializing dual steep norms . . .
Root relaxation solution time = 0.02 sec. (14.60 ticks)

        Nodes                                         Cuts/
   Node  Left     Objective  IInf  Best Integer    Best Bound    ItCnt     Gap

*     0+    0                         4727.0000   785010.0000              --- 
Found incumbent of value 4727.000000 after 0.08 sec. (62.85 ticks)
      0     0     7996.8750   193     4727.0000     7996.8750      756   69.17%
      0     0     7996.8750     8     4727.0000       Cuts: 3      759   69.17%
      0     0     7996.8750    11     4727.0000       Cuts: 2      760   69.17%
*     0+    0                         7923.0000     7996.8750             0.93%
Found incumbent of value 7923.000000 after 0.14 sec. (137.14 ticks)
      0     0     7996.8750    15     7923.0000    MIRcuts: 1      763    0.93%
      0     2     7996.8750    11     7923.0000     7996.8750      763    0.93%
Elapsed time = 0.23 sec. (264.17 ticks, tree = 0.00 MB, solutions = 2)
    245   188     7996.8750    34     7923.0000     7996.8750     3633    0.93%
                                                  Flowcuts: 1                  
    246   188     7996.8750    34     7923.0000     7996.8750     3672    0.93%
    247   189     7996.8750     8     7923.0000     7996.8750     3678    0.93%
    248   190     7996.8750     6     7923.0000     7996.8750     3681    0.93%
    249   191     7996.8750    12     7923.0000     7996.8750     3687    0.93%
    250   191     7996.8750    34     7923.0000     7996.8750     3720    0.93%
    251   192     7996.8750    16     7923.0000     7996.8750     3721    0.93%
    252   193     7996.8750    18     7923.0000     7996.8750     3758    0.93%
    253   194     7996.8750     6     7923.0000     7996.8750     3759    0.93%
    469   326     7996.8750     6     7923.0000     7996.8750     6215    0.93%
Elapsed time = 1.06 sec. (1291.10 ticks, tree = 0.30 MB, solutions = 2)
    669   104     7996.8750     6     7923.0000     7996.8750     8566    0.93%
    670   105     7996.8750     8     7923.0000     7996.8750     8567    0.93%
    671   106     7996.8750     8     7923.0000     7996.8750     8568    0.93%
    672   107     7996.8750     6     7923.0000     7996.8750     8569    0.93%
    673   108     7996.8750     8     7923.0000     7996.8750     8570    0.93%
    674   109     7996.8750     6     7923.0000     7996.8750     8571    0.93%
    675   110     7996.8750     8     7923.0000     7996.8750     8572    0.93%
    676   111     7996.8750     6     7923.0000     7996.8750     8574    0.93%
    677   112     7996.8750     6     7923.0000     7996.8750     8576    0.93%
    678   113     7996.8750     6     7923.0000     7996.8750     8580    0.93%
Elapsed time = 1.83 sec. (2387.16 ticks, tree = 0.11 MB, solutions = 2)
   1229   570     7972.2500    13     7923.0000     7996.8750    12225    0.93%
   1230   571     7972.2500    13     7923.0000     7996.8750    12226    0.93%
   1231   572     7972.2500    13     7923.0000     7996.8750    12227    0.93%
   1232   573     7972.2500    12     7923.0000     7996.8750    12228    0.93%
   1233   574     7972.2500    13     7923.0000     7996.8750    12230    0.93%
   1234   575     7972.2500    13     7923.0000     7996.8750    12232    0.93%
   1235   576     7972.2500    13     7923.0000     7996.8750    12234    0.93%
   1236   577     7972.2500    15     7923.0000     7996.8750    12235    0.93%
   1237   578     7972.2500    10     7923.0000     7996.8750    12237    0.93%
   1238   579     7972.2500     6     7923.0000     7996.8750    12238    0.93%
Elapsed time = 2.53 sec. (3347.30 ticks, tree = 0.54 MB, solutions = 2)
   2674  1795     7972.2500     6     7923.0000     7996.8750    20731    0.93%
   2675  1796     7972.2500     4     7923.0000     7996.8750    20734    0.93%
   2676  1797     7972.2500     4     7923.0000     7996.8750    20736    0.93%
   2677  1798     7972.2500     4     7923.0000     7996.8750    20741    0.93%
   2678  1799     7972.2500     6     7923.0000     7996.8750    20742    0.93%
   2679  1800     7972.2500     4     7923.0000     7996.8750    20743    0.93%
   2680  1801     7972.2500     4     7923.0000     7996.8750    20744    0.93%
   2681  1802     7972.2500     4     7923.0000     7996.8750    20746    0.93%
   2682  1803     7972.2500     4     7923.0000     7996.8750    20749    0.93%
   2683  1804     7972.2500     6     7923.0000     7996.8750    20752    0.93%
Elapsed time = 3.20 sec. (4305.66 ticks, tree = 1.66 MB, solutions = 2)
   4120  2975        cutoff           7923.0000     7996.8750    30089    0.93%
   4121  2974        cutoff           7923.0000     7996.8750    30135    0.93%
   4122  2974     7996.8750    22     7923.0000     7996.8750    30156    0.93%
   4123  2975     7996.8750     6     7923.0000     7996.8750    30170    0.93%
   4124  2976     7996.8750     6     7923.0000     7996.8750    30180    0.93%
   4125  2977     7996.8750    20     7923.0000     7996.8750    30184    0.93%
   4126  2978     7996.8750    18     7923.0000     7996.8750    30185    0.93%
   4127  2979     7996.8750    16     7923.0000     7996.8750    30186    0.93%
   4128  2980     7996.8750    14     7923.0000     7996.8750    30187    0.93%
   4129  2981     7996.8750     6     7923.0000     7996.8750    30188    0.93%
Elapsed time = 3.87 sec. (5266.53 ticks, tree = 2.73 MB, solutions = 2)
   6015  4473        cutoff           7923.0000     7996.8750    43736    0.93%
   6016  4472        cutoff           7923.0000     7996.8750    43779    0.93%
   6017  4471        cutoff           7923.0000     7996.8750    43807    0.93%
   6018  4472     7996.8750    12     7923.0000     7996.8750    43833    0.93%
   6019  4473     7996.8750    14     7923.0000     7996.8750    43840    0.93%
   6020  4474     7996.8750    20     7923.0000     7996.8750    43841    0.93%
   6021  4475     7996.8750    14     7923.0000     7996.8750    43842    0.93%
   6022  4476     7996.8750    16     7923.0000     7996.8750    43844    0.93%
   6023  4477     7996.8750    12     7923.0000     7996.8750    43845    0.93%
   6024  4478     7996.8750    12     7923.0000     7996.8750    43849    0.93%
Elapsed time = 4.52 sec. (6227.05 ticks, tree = 4.18 MB, solutions = 2)
   7777  5906     7972.2500     4     7923.0000     7996.8750    55760    0.93%
   7778  5907     7972.2500     4     7923.0000     7996.8750    55761    0.93%
   7779  5908     7972.2500     4     7923.0000     7996.8750    55762    0.93%
   7780  5909     7972.2500     4     7923.0000     7996.8750    55763    0.93%
   7781  5910     7972.2500     4     7923.0000     7996.8750    55770    0.93%
   7782  5911     7972.2500     4     7923.0000     7996.8750    55772    0.93%
   7783  5912     7972.2500     4     7923.0000     7996.8750    55775    0.93%
   7784  5913     7972.2500     4     7923.0000     7996.8750    55776    0.93%
   7785  5914     7972.2500     4     7923.0000     7996.8750    55777    0.93%
   7786  5915     7972.2500     4     7923.0000     7996.8750    55779    0.93%
Elapsed time = 5.18 sec. (7184.03 ticks, tree = 5.44 MB, solutions = 2)
   9638  7453     7972.2500     4     7923.0000     7996.8750    68652    0.93%
   9639  7454     7972.2500     4     7923.0000     7996.8750    68653    0.93%
   9640  7455     7972.2500     4     7923.0000     7996.8750    68655    0.93%
   9641  7456     7972.2500     4     7923.0000     7996.8750    68656    0.93%
   9642  7457     7972.2500     4     7923.0000     7996.8750    68657    0.93%
   9643  7458     7972.2500     4     7923.0000     7996.8750    68666    0.93%
   9644  7459     7972.2500     4     7923.0000     7996.8750    68670    0.93%
   9645  7460     7972.2500     4     7923.0000     7996.8750    68672    0.93%
   9646  7461     7972.2500     4     7923.0000     7996.8750    68676    0.93%
   9647  7462     7972.2500     4     7923.0000     7996.8750    68678    0.93%
Elapsed time = 5.82 sec. (8140.74 ticks, tree = 6.82 MB, solutions = 2)
   9809  7596     7972.2500     4     7923.0000     7996.8750    69913    0.93%
   9810  7597     7972.2500     4     7923.0000     7996.8750    69914    0.93%
   9811  7598     7972.2500     4     7923.0000     7996.8750    69920    0.93%
   9812  7599     7972.2500     4     7923.0000     7996.8750    69924    0.93%
   9813  7600     7972.2500     6     7923.0000     7996.8750    69937    0.93%
   9814  7601     7972.2500     4     7923.0000     7996.8750    69949    0.93%
   9815  7602     7972.2500     4     7923.0000     7996.8750    69951    0.93%
   9816  7603     7972.2500     4     7923.0000     7996.8750    69955    0.93%
   9817  7604     7972.2500     4     7923.0000     7996.8750    69957    0.93%
   9818  7605     7972.2500     4     7923.0000     7996.8750    69959    0.93%
Elapsed time = 6.63 sec. (9097.97 ticks, tree = 6.95 MB, solutions = 2)
  11774  9302     7972.2500     6     7923.0000     7996.8750    82883    0.93%
  11775  9301    infeasible           7923.0000     7996.8750    82889    0.93%
  11776  9300        cutoff           7923.0000     7996.8750    82949    0.93%
  11777  9301     7996.8750     8     7923.0000     7996.8750    82970    0.93%
  11778  9302     7996.8750    10     7923.0000     7996.8750    82971    0.93%
  11779  9303     7996.8750     8     7923.0000     7996.8750    82993    0.93%
  11780  9304     7996.8750     6     7923.0000     7996.8750    82994    0.93%
  11781  9305     7995.5789    12     7923.0000     7996.8750    83004    0.93%
  11782  9306     7994.1389    13     7923.0000     7996.8750    83005    0.93%
  17291 13673     7972.2500     4     7923.0000     7996.8750   120797    0.93%
Elapsed time = 9.19 sec. (12912.81 ticks, tree = 12.63 MB, solutions = 2)
  24551 19353     7972.2500     9     7923.0000     7996.8750   172650    0.93%
  24552 19354     7972.2500     9     7923.0000     7996.8750   172651    0.93%
  24553 19355     7972.2500     9     7923.0000     7996.8750   172652    0.93%
  24554 19356     7972.2500     9     7923.0000     7996.8750   172653    0.93%
  24555 19357     7972.2500     9     7923.0000     7996.8750   172660    0.93%
  24556 19358     7972.2500     9     7923.0000     7996.8750   172662    0.93%
  24557 19359     7972.2500     9     7923.0000     7996.8750   172663    0.93%
  24558 19360     7972.2500     9     7923.0000     7996.8750   172664    0.93%
  24559 19361     7972.2500     9     7923.0000     7996.8750   172665    0.93%
  24560 19362     7972.2500     9     7923.0000     7996.8750   172666    0.93%
Elapsed time = 11.73 sec. (16730.54 ticks, tree = 18.29 MB, solutions = 2)
  31971 25168     7995.5789    19     7923.0000     7996.8750   223759    0.93%
  31972 25169     7995.5789    13     7923.0000     7996.8750   223761    0.93%
  31973 25170     7972.2500     6     7923.0000     7996.8750   223771    0.93%
  31974 25171     7972.2500     4     7923.0000     7996.8750   223772    0.93%
  31975 25172     7972.2500     4     7923.0000     7996.8750   223773    0.93%
  31976 25173     7972.2500     4     7923.0000     7996.8750   223777    0.93%
  31977 25174     7972.2500     4     7923.0000     7996.8750   223781    0.93%
  31978 25175     7972.2500     4     7923.0000     7996.8750   223789    0.93%
  31979 25176     7972.2500     4     7923.0000     7996.8750   223790    0.93%
  31980 25177     7972.2500     4     7923.0000     7996.8750   223791    0.93%
Elapsed time = 14.31 sec. (20550.26 ticks, tree = 23.58 MB, solutions = 2)
  38956 30674     7972.2500     4     7923.0000     7996.8750   270573    0.93%
  38957 30675     7972.2500     6     7923.0000     7996.8750   270574    0.93%
  38958 30676     7972.2500     4     7923.0000     7996.8750   270575    0.93%
  38959 30677     7972.2500     8     7923.0000     7996.8750   270576    0.93%
  38960 30676    infeasible           7923.0000     7996.8750   270588    0.93%
  38961 30677     7972.2500     4     7923.0000     7996.8750   270625    0.93%
  38962 30678     7972.2500     4     7923.0000     7996.8750   270656    0.93%
  38963 30679     7972.2500     4     7923.0000     7996.8750   270658    0.93%
  38964 30678    infeasible           7923.0000     7996.8750   270668    0.93%
  38965 30677        cutoff           7923.0000     7996.8750   270725    0.93%
Elapsed time = 16.86 sec. (24371.51 ticks, tree = 28.46 MB, solutions = 2)
  46271 36562     7972.2500     6     7923.0000     7996.8750   320509    0.93%
  46272 36563     7972.2500     4     7923.0000     7996.8750   320510    0.93%
  46273 36564     7972.2500     9     7923.0000     7996.8750   320518    0.93%
  46274 36565     7972.2500     6     7923.0000     7996.8750   320519    0.93%
  46275 36566     7972.2500     4     7923.0000     7996.8750   320521    0.93%
  46276 36567     7972.2500     4     7923.0000     7996.8750   320522    0.93%
  46277 36568     7972.2500     4     7923.0000     7996.8750   320527    0.93%
  46278 36569     7972.2500     4     7923.0000     7996.8750   320532    0.93%
  46279 36570     7972.2500     4     7923.0000     7996.8750   320533    0.93%
  46280 36571     7972.2500     4     7923.0000     7996.8750   320535    0.93%
Elapsed time = 19.44 sec. (28191.85 ticks, tree = 34.65 MB, solutions = 2)
  52948 41869        cutoff           7923.0000     7996.8750   367072    0.93%
  52949 41870     7982.1000     9     7923.0000     7996.8750   367103    0.93%
  52950 41871     7982.1000     9     7923.0000     7996.8750   367113    0.93%
  52951 41872     7982.1000     9     7923.0000     7996.8750   367114    0.93%
  52952 41873     7982.1000    11     7923.0000     7996.8750   367115    0.93%
  52953 41874     7982.1000     9     7923.0000     7996.8750   367116    0.93%
  52954 41875     7982.1000    17     7923.0000     7996.8750   367118    0.93%
  52955 41876     7982.1000    15     7923.0000     7996.8750   367145    0.93%
  52956 41877     7982.1000     9     7923.0000     7996.8750   367152    0.93%
  52957 41878     7982.1000     9     7923.0000     7996.8750   367158    0.93%
Elapsed time = 22.06 sec. (32015.65 ticks, tree = 39.35 MB, solutions = 2)
  59671 46879     7972.2500    34     7923.0000     7996.8750   415161    0.93%
  59672 46880     7972.2500    28     7923.0000     7996.8750   415162    0.93%
  59673 46881     7972.2500    16     7923.0000     7996.8750   415163    0.93%
  59674 46882     7972.2500    10     7923.0000     7996.8750   415165    0.93%
  59675 46883     7972.2500    10     7923.0000     7996.8750   415174    0.93%
  59676 46884     7972.2500    14     7923.0000     7996.8750   415192    0.93%
  59677 46885     7972.2500    14     7923.0000     7996.8750   415195    0.93%
  59678 46886     7947.6250    19     7923.0000     7996.8750   415198    0.93%
  59679 46885        cutoff           7923.0000     7996.8750   415200    0.93%
  59680 46884        cutoff           7923.0000     7996.8750   415203    0.93%
Elapsed time = 24.66 sec. (35834.72 ticks, tree = 43.89 MB, solutions = 2)
  67020 52750     7996.8750    12     7923.0000     7996.8750   463794    0.93%
  67021 52751     7996.8750     6     7923.0000     7996.8750   463800    0.93%
  67022 52752     7996.8750     6     7923.0000     7996.8750   463802    0.93%
  67023 52753     7995.5789    19     7923.0000     7996.8750   463811    0.93%
  67024 52754     7995.5789    13     7923.0000     7996.8750   463813    0.93%
  67025 52755     7972.2500    10     7923.0000     7996.8750   463817    0.93%
  67026 52756     7972.2500    11     7923.0000     7996.8750   463820    0.93%
  67027 52757     7972.2500    11     7923.0000     7996.8750   463822    0.93%
  67028 52758     7972.2500    11     7923.0000     7996.8750   463823    0.93%
  67029 52759     7972.2500     4     7923.0000     7996.8750   463825    0.93%
Elapsed time = 27.25 sec. (39654.99 ticks, tree = 49.23 MB, solutions = 2)
  73881 57946     7972.2500     4     7923.0000     7996.8750   511522    0.93%
  73882 57947     7972.2500     4     7923.0000     7996.8750   511523    0.93%
  73883 57948     7972.2500     4     7923.0000     7996.8750   511525    0.93%
  73884 57949     7972.2500     4     7923.0000     7996.8750   511526    0.93%
  73885 57950     7972.2500     6     7923.0000     7996.8750   511528    0.93%
  73886 57951     7972.2500     4     7923.0000     7996.8750   511529    0.93%
  73887 57952     7972.2500     4     7923.0000     7996.8750   511531    0.93%
  73888 57953     7972.2500     4     7923.0000     7996.8750   511532    0.93%
  73889 57954     7972.2500     4     7923.0000     7996.8750   511533    0.93%
  73890 57955     7972.2500     4     7923.0000     7996.8750   511534    0.93%
Elapsed time = 29.84 sec. (43472.46 ticks, tree = 53.91 MB, solutions = 2)
  80438 62769     7996.8750    10     7923.0000     7996.8750   560833    0.93%
  80439 62770     7996.8750    12     7923.0000     7996.8750   560834    0.93%
  80440 62771     7996.8750    14     7923.0000     7996.8750   560835    0.93%
  80441 62772     7996.8750     6     7923.0000     7996.8750   560839    0.93%
  80442 62773     7994.1389     7     7923.0000     7996.8750   560844    0.93%
  80443 62774     7972.2500     4     7923.0000     7996.8750   560851    0.93%
  80444 62775     7972.2500     4     7923.0000     7996.8750   560853    0.93%
  80445 62776     7972.2500     9     7923.0000     7996.8750   560858    0.93%
  80446 62777     7972.2500     9     7923.0000     7996.8750   560859    0.93%
  80447 62778     7972.2500     9     7923.0000     7996.8750   560860    0.93%
Elapsed time = 32.46 sec. (47290.82 ticks, tree = 58.33 MB, solutions = 2)
  87281 68040     7972.2500     6     7923.0000     7996.8750   607926    0.93%
  87282 68041     7972.2500     4     7923.0000     7996.8750   607931    0.93%
  87283 68042     7972.2500     4     7923.0000     7996.8750   607936    0.93%
  87284 68043     7972.2500     4     7923.0000     7996.8750   607937    0.93%
  87285 68044     7972.2500     4     7923.0000     7996.8750   607941    0.93%
  87286 68045     7972.2500     6     7923.0000     7996.8750   607956    0.93%
  87287 68046     7972.2500     4     7923.0000     7996.8750   607957    0.93%
  87288 68047     7972.2500     4     7923.0000     7996.8750   607958    0.93%
  87289 68048     7972.2500     6     7923.0000     7996.8750   607959    0.93%
  87290 68049     7972.2500     4     7923.0000     7996.8750   607960    0.93%
Elapsed time = 35.10 sec. (51109.95 ticks, tree = 65.06 MB, solutions = 2)
  94482 73847     7996.8750    11     7923.0000     7996.8750   656129    0.93%
  94483 73848     7996.8750     6     7923.0000     7996.8750   656135    0.93%
  94484 73849     7996.8750     8     7923.0000     7996.8750   656137    0.93%
  94485 73850     7996.8750     6     7923.0000     7996.8750   656138    0.93%
  94486 73851     7996.8750     6     7923.0000     7996.8750   656143    0.93%
  94487 73852     7996.8750     6     7923.0000     7996.8750   656148    0.93%
  94488 73853     7996.8750     6     7923.0000     7996.8750   656149    0.93%
  94489 73854     7996.8750     8     7923.0000     7996.8750   656150    0.93%
  94490 73855     7996.8750     8     7923.0000     7996.8750   656151    0.93%
  94491 73856     7996.8750    12     7923.0000     7996.8750   656157    0.93%
Elapsed time = 37.67 sec. (54928.10 ticks, tree = 70.33 MB, solutions = 2)
 100635 78414     7972.2500     9     7923.0000     7996.8750   705125    0.93%
 100636 78415     7972.2500     9     7923.0000     7996.8750   705126    0.93%
 100637 78416     7972.2500     9     7923.0000     7996.8750   705132    0.93%
 100638 78417     7972.2500     9     7923.0000     7996.8750   705133    0.93%
 100639 78418     7972.2500     9     7923.0000     7996.8750   705138    0.93%
 100640 78419     7972.2500     9     7923.0000     7996.8750   705143    0.93%
 100641 78420     7972.2500    11     7923.0000     7996.8750   705144    0.93%
 100642 78421     7972.2500     9     7923.0000     7996.8750   705146    0.93%
 100643 78422     7972.2500     9     7923.0000     7996.8750   705147    0.93%
 100644 78423     7972.2500     9     7923.0000     7996.8750   705151    0.93%
Elapsed time = 40.30 sec. (58746.31 ticks, tree = 74.47 MB, solutions = 2)
 107735 83675     7972.2500     4     7923.0000     7996.8750   758367    0.93%
 107736 83676     7972.2500     4     7923.0000     7996.8750   758369    0.93%
 107737 83677     7972.2500     4     7923.0000     7996.8750   758370    0.93%
 107738 83678     7972.2500     6     7923.0000     7996.8750   758371    0.93%
 107739 83679     7972.2500     4     7923.0000     7996.8750   758372    0.93%
 107740 83680     7972.2500     4     7923.0000     7996.8750   758374    0.93%
 107741 83681     7972.2500     4     7923.0000     7996.8750   758375    0.93%
 107742 83682     7972.2500     4     7923.0000     7996.8750   758377    0.93%
 107743 83683     7972.2500     4     7923.0000     7996.8750   758379    0.93%
 107744 83684     7972.2500     6     7923.0000     7996.8750   758381    0.93%
Elapsed time = 42.92 sec. (62565.63 ticks, tree = 79.29 MB, solutions = 2)
 114464 88671     7967.3250    20     7923.0000     7996.8750   807691    0.93%
 114465 88672     7952.5500    18     7923.0000     7996.8750   807693    0.93%
 114466 88673     7937.7750    16     7923.0000     7996.8750   807696    0.93%
 114467 88674     7937.7750    10     7923.0000     7996.8750   807700    0.93%
 114468 88673        cutoff           7923.0000     7996.8750   807737    0.93%
 114469 88672        cutoff           7923.0000     7996.8750   807754    0.93%
 114470 88671        cutoff           7923.0000     7996.8750   807773    0.93%
 114471 88670        cutoff           7923.0000     7996.8750   807797    0.93%
 114472 88669        cutoff           7923.0000     7996.8750   807840    0.93%
 114473 88668        cutoff           7923.0000     7996.8750   807876    0.93%
Elapsed time = 45.54 sec. (66389.81 ticks, tree = 83.94 MB, solutions = 2)
 121350 94019     7972.2500     4     7923.0000     7996.8750   858295    0.93%
 121351 94020     7972.2500     6     7923.0000     7996.8750   858297    0.93%
 121352 94021     7972.2500     4     7923.0000     7996.8750   858305    0.93%
 121353 94022     7972.2500     4     7923.0000     7996.8750   858309    0.93%
 121354 94023     7972.2500     4     7923.0000     7996.8750   858310    0.93%
 121355 94024     7972.2500     4     7923.0000     7996.8750   858311    0.93%
 121356 94025     7972.2500     4     7923.0000     7996.8750   858314    0.93%
 121357 94026     7972.2500     7     7923.0000     7996.8750   858319    0.93%
 121358 94027     7972.2500     4     7923.0000     7996.8750   858321    0.93%
 121359 94028     7972.2500     4     7923.0000     7996.8750   858325    0.93%
Elapsed time = 48.16 sec. (70208.39 ticks, tree = 88.84 MB, solutions = 2)
 128174 99413     7972.2500     4     7923.0000     7996.8750   905859    0.93%
 128175 99412    infeasible           7923.0000     7996.8750   905872    0.93%
 128176 99411        cutoff           7923.0000     7996.8750   905894    0.93%
 128177 99412     7996.8750     8     7923.0000     7996.8750   905909    0.93%
 128178 99413     7996.8750     6     7923.0000     7996.8750   905937    0.93%
 128179 99414     7996.8750     6     7923.0000     7996.8750   905938    0.93%
 128180 99415     7996.8750     6     7923.0000     7996.8750   905939    0.93%
 128181 99416     7996.8750    10     7923.0000     7996.8750   905941    0.93%
 128182 99417     7996.8750    12     7923.0000     7996.8750   905942    0.93%
 128183 99418     7995.5789    19     7923.0000     7996.8750   905947    0.93%
Elapsed time = 50.78 sec. (74028.32 ticks, tree = 93.76 MB, solutions = 2)
 135415 104939     7972.2500     4     7923.0000     7996.8750   958246    0.93%
 135416 104940     7972.2500     4     7923.0000     7996.8750   958247    0.93%
 135417 104941     7972.2500     4     7923.0000     7996.8750   958248    0.93%
 135418 104942     7972.2500     4     7923.0000     7996.8750   958249    0.93%
 135419 104943     7972.2500     4     7923.0000     7996.8750   958250    0.93%
 135420 104944     7972.2500     4     7923.0000     7996.8750   958253    0.93%
 135421 104945     7972.2500     4     7923.0000     7996.8750   958254    0.93%
 135422 104946     7972.2500     4     7923.0000     7996.8750   958256    0.93%
 135423 104947     7972.2500     4     7923.0000     7996.8750   958257    0.93%
 135424 104948     7972.2500     6     7923.0000     7996.8750   958261    0.93%
Elapsed time = 53.38 sec. (77846.58 ticks, tree = 98.80 MB, solutions = 2)
 141984 109817     7996.8750     6     7923.0000     7996.8750  1009327    0.93%
 141985 109818     7994.1389     7     7923.0000     7996.8750  1009331    0.93%
 141986 109819     7994.1389     7     7923.0000     7996.8750  1009333    0.93%
 141987 109820     7972.2500     4     7923.0000     7996.8750  1009340    0.93%
 141988 109821     7972.2500     6     7923.0000     7996.8750  1009341    0.93%
 141989 109822     7972.2500     4     7923.0000     7996.8750  1009344    0.93%
 141990 109823     7972.2500     4     7923.0000     7996.8750  1009345    0.93%
 141991 109824     7972.2500     4     7923.0000     7996.8750  1009346    0.93%
 141992 109825     7972.2500     6     7923.0000     7996.8750  1009351    0.93%
 141993 109826     7972.2500     4     7923.0000     7996.8750  1009353    0.93%
Elapsed time = 56.02 sec. (81665.24 ticks, tree = 103.29 MB, solutions = 2)
 148594 114535     7972.2500     4     7923.0000     7996.8750  1061567    0.93%
 148595 114536     7972.2500     4     7923.0000     7996.8750  1061569    0.93%
 148596 114537     7972.2500     4     7923.0000     7996.8750  1061572    0.93%
 148597 114538     7972.2500     4     7923.0000     7996.8750  1061577    0.93%
 148598 114539     7972.2500     4     7923.0000     7996.8750  1061578    0.93%
 148599 114540     7972.2500     4     7923.0000     7996.8750  1061580    0.93%
 148600 114541     7972.2500     4     7923.0000     7996.8750  1061581    0.93%
 148601 114542     7972.2500     4     7923.0000     7996.8750  1061582    0.93%
 148602 114543     7972.2500     6     7923.0000     7996.8750  1061589    0.93%
 148603 114544     7972.2500     6     7923.0000     7996.8750  1061590    0.93%
Elapsed time = 58.67 sec. (85483.62 ticks, tree = 107.70 MB, solutions = 2)
 155730 120408        cutoff           7923.0000     7996.8750  1104501    0.93%
 155731 120409     7996.8750     8     7923.0000     7996.8750  1104536    0.93%
 155732 120410     7996.8750    11     7923.0000     7996.8750  1104547    0.93%
 155733 120411     7996.8750     6     7923.0000     7996.8750  1104550    0.93%
 155734 120412     7996.8750     6     7923.0000     7996.8750  1104558    0.93%
 155735 120413     7996.8750     8     7923.0000     7996.8750  1104567    0.93%
 155736 120414     7996.8750     6     7923.0000     7996.8750  1104571    0.93%
 155737 120415     7996.8750     6     7923.0000     7996.8750  1104574    0.93%
 155738 120416     7995.5789    16     7923.0000     7996.8750  1104577    0.93%
 155739 120417     7995.5789    10     7923.0000     7996.8750  1104579    0.93%
Elapsed time = 61.22 sec. (89304.30 ticks, tree = 112.93 MB, solutions = 2)
Sending CtrlBreakp signal
Terminate batch job (Y/N)? 
^CERROR: Solver "CPLEX" returned with nonzero exitcode -1073741510 
Exit code = -1073741510
